100 100 100
50
80 52 82
67 95 69
7 95 73
62 80 88
75 78 58
18 92 79
89 75 7
76 77 58
68 39 83
62 90 70
87 61 54
15 91 86
50 59 96
33 94 95
43 12 26
42 84 96
37 84 67
92 61 78
78 61 51
99 55 89
99 69 85
83 54 88
88 63 63
79 96 20
90 43 82
67 25 91
99 96 91
75 67 93
84 100 73
89 87 50
85 10 88
1 38 1
42 45 32
63 58 66
81 93 90
100 71 8
34 72 83
32 8 27
77 64 84
73 56 70
72 78 66
69 9 72
78 68 72
37 49 42
7 48 2
87 20 72
84 11 97
97 90 91
85 96 71
54 64 77
